c FILE			: uw_20.gr
c No. of vertices	: 20
c No. of directed edges	: 101
c Max. weight		: 100
c Min. weight		: 0
c A directed arc from u to v of weight w
c is represented below as ' a  u  v  w '
p sp 20 101
a 1 5 66
a 1 9 55
a 1 10 87
a 1 11 8
a 1 13 78
a 2 6 12
a 2 10 65
a 2 11 4
a 2 18 21
a 3 1 22
a 3 7 27
a 3 20 49
a 4 2 2
a 4 3 98
a 4 7 58
a 4 8 27
a 5 1 57
a 5 8 21
a 5 11 38
a 5 12 93
a 5 13 61
a 5 14 99
a 5 16 99
a 5 17 20
a 5 19 58
a 6 2 82
a 6 8 60
a 6 14 58
a 6 15 65
a 6 19 84
a 6 20 61
a 7 1 17
a 7 3 65
a 7 6 87
a 7 9 21
a 7 11 33
a 7 14 44
a 8 2 95
a 8 15 94
a 8 18 68
a 9 8 69
a 9 10 73
a 9 18 64
a 9 20 89
a 10 1 86
a 10 2 59
a 10 3 82
a 10 6 15
a 10 7 15
a 10 9 25
a 10 11 45
a 10 12 24
a 10 15 44
a 10 20 41
a 11 1 79
a 11 3 46
a 11 4 70
a 11 17 68
a 12 9 73
a 12 17 11
a 12 19 3
a 13 1 34
a 13 8 96
a 13 14 21
a 13 15 29
a 13 16 19
a 14 3 99
a 14 8 38
a 14 9 73
a 14 13 91
a 14 15 87
a 15 5 9
a 15 6 35
a 15 12 25
a 15 19 11
a 16 1 22
a 16 7 93
a 16 9 91
a 16 13 4
a 16 14 43
a 16 15 47
a 17 1 43
a 17 6 64
a 17 7 46
a 17 13 63
a 17 15 49
a 18 5 12
a 18 13 47
a 18 14 12
a 19 5 68
a 19 9 26
a 19 10 49
a 19 12 27
a 19 13 99
a 19 14 93
a 19 15 84
a 19 16 47
a 20 3 63
a 20 6 78
a 20 7 59
a 20 19 16
